Spherical optical model                                                 
FFFFFTFTFFFFFFFFFFFFFFFFTFFTFFFFFFFFFFFFFFFFFFFFFF
FFFFFFFFTFFFTTTFTTTFTTTFTFFFFFFFFFFFFFFFFFFFTFFFFF
    1   20    1    1
   0.00000   0.00000              1.e-10    1.e-10    1.e-30

 0.00 1 1+   5.00000   0.50000   1.00866 238.05079   0.00000
  43.63731   1.26395   0.65668
   0.20132   1.26537   0.70211
   3.75061   1.19205   0.61062
   5.17409   1.19205   0.61062
   5.52000   1.12140   0.59000
  -0.01320   1.12140   0.59000
   0.00000   0.00000   0.00000
   0.00000   0.00000   0.00000
   0.00000   2.00000 180.00000
fin
