Direct discrete cross sections by DWBA                                  
FFFFFTFTFFFFFFFFFFFFFFFFFFFTFTFFFFFFFFFFFFFFFFFFFF
FFFFFFFFTFFFFTTFTTTFTTTFTFFFFFFFFFFFFFFFFFFFTFFFFF
    2   20    1    1
   0.00000   0.00000              1.e-10    1.e-10    1.e-30

 0.00 0 1+   5.00000   0.50000   1.00866 238.05079   0.00000

 2.00 0 1+   0.04492
    1    1    1
    2    0   1.54606
  43.63731   1.26395   0.65668
   0.20132   1.26537   0.70211
   3.75061   1.19205   0.61062
   5.17409   1.19205   0.61062
   5.52000   1.12140   0.59000
  -0.01320   1.12140   0.59000
   0.00000   0.00000   0.00000
   0.00000   0.00000   0.00000
   0.00000   2.00000 180.00000
Direct discrete cross sections by DWBA                                  
FFFFFTFTFFFFFFFFFFFFFFFFFFFTFTFFFFFFFFFFFFFFFFFFFF
FFFFFFFFTFFFFTTFTTTFTTTFTFFFFFFFFFFFFFFFFFFFTFFFFF
    2   20    1    1
   0.00000   0.00000              1.e-10    1.e-10    1.e-30

 0.00 0 1+   5.00000   0.50000   1.00866 238.05079   0.00000

 4.00 0 1+   0.14838
    1    1    1
    4    0   0.44508
  43.63731   1.26395   0.65668
   0.20132   1.26537   0.70211
   3.75061   1.19205   0.61062
   5.17409   1.19205   0.61062
   5.52000   1.12140   0.59000
  -0.01320   1.12140   0.59000
   0.00000   0.00000   0.00000
   0.00000   0.00000   0.00000
   0.00000   2.00000 180.00000
Direct discrete cross sections by DWBA                                  
FFFFFTFTFFFFFFFFFFFFFFFFFFFTFTFFFFFFFFFFFFFFFFFFFF
FFFFFFFFTFFFFTTFTTTFTTTFTFFFFFFFFFFFFFFFFFFFTFFFFF
    2   20    1    1
   0.00000   0.00000              1.e-10    1.e-10    1.e-30

 0.00 0 1+   5.00000   0.50000   1.00866 238.05079   0.00000

 6.00 0 1+   0.30718
    1    1    1
    6    0   0.15369
  43.63731   1.26395   0.65668
   0.20132   1.26537   0.70211
   3.75061   1.19205   0.61062
   5.17409   1.19205   0.61062
   5.52000   1.12140   0.59000
  -0.01320   1.12140   0.59000
   0.00000   0.00000   0.00000
   0.00000   0.00000   0.00000
   0.00000   2.00000 180.00000
Direct discrete cross sections by DWBA                                  
FFFFFTFTFFFFFFFFFFFFFFFFFFFTFTFFFFFFFFFFFFFFFFFFFF
FFFFFFFFTFFFFTTFTTTFTTTFTFFFFFFFFFFFFFFFFFFFTFFFFF
    2   20    1    1
   0.00000   0.00000              1.e-10    1.e-10    1.e-30

 0.00 0 1+   5.00000   0.50000   1.00866 238.05079   0.00000

 8.00 0 1+   0.51810
    1    1    1
    8    0   0.15369
  43.63731   1.26395   0.65668
   0.20132   1.26537   0.70211
   3.75061   1.19205   0.61062
   5.17409   1.19205   0.61062
   5.52000   1.12140   0.59000
  -0.01320   1.12140   0.59000
   0.00000   0.00000   0.00000
   0.00000   0.00000   0.00000
   0.00000   2.00000 180.00000
Direct discrete cross sections by DWBA                                  
FFFFFTFTFFFFFFFFFFFFFFFFFFFTFTFFFFFFFFFFFFFFFFFFFF
FFFFFFFFTFFFFTTFTTTFTTTFTFFFFFFFFFFFFFFFFFFFTFFFFF
    2   20    1    1
   0.00000   0.00000              1.e-10    1.e-10    1.e-30

 0.00 0 1+   5.00000   0.50000   1.00866 238.05079   0.00000

 1.00 0 1-   0.68011
    1    1    1
    1    0   0.90000
  43.63731   1.26395   0.65668
   0.20132   1.26537   0.70211
   3.75061   1.19205   0.61062
   5.17409   1.19205   0.61062
   5.52000   1.12140   0.59000
  -0.01320   1.12140   0.59000
   0.00000   0.00000   0.00000
   0.00000   0.00000   0.00000
   0.00000   2.00000 180.00000
Direct discrete cross sections by DWBA                                  
FFFFFTFTFFFFFFFFFFFFFFFFFFFTFTFFFFFFFFFFFFFFFFFFFF
FFFFFFFFTFFFFTTFTTTFTTTFTFFFFFFFFFFFFFFFFFFFTFFFFF
    2   20    1    1
   0.00000   0.00000              1.e-10    1.e-10    1.e-30

 0.00 0 1+   5.00000   0.50000   1.00866 238.05079   0.00000

 3.00 0 1-   0.73193
    1    1    1
    3    0   0.12020
  43.63731   1.26395   0.65668
   0.20132   1.26537   0.70211
   3.75061   1.19205   0.61062
   5.17409   1.19205   0.61062
   5.52000   1.12140   0.59000
  -0.01320   1.12140   0.59000
   0.00000   0.00000   0.00000
   0.00000   0.00000   0.00000
   0.00000   2.00000 180.00000
Direct discrete cross sections by DWBA                                  
FFFFFTFTFFFFFFFFFFFFFFFFFFFTFTFFFFFFFFFFFFFFFFFFFF
FFFFFFFFTFFFFTTFTTTFTTTFTFFFFFFFFFFFFFFFFFFFTFFFFF
    2   20    1    1
   0.00000   0.00000              1.e-10    1.e-10    1.e-30

 0.00 0 1+   5.00000   0.50000   1.00866 238.05079   0.00000

10.00 0 1+   0.77590
    1    1    1
   10    0   0.15369
  43.63731   1.26395   0.65668
   0.20132   1.26537   0.70211
   3.75061   1.19205   0.61062
   5.17409   1.19205   0.61062
   5.52000   1.12140   0.59000
  -0.01320   1.12140   0.59000
   0.00000   0.00000   0.00000
   0.00000   0.00000   0.00000
   0.00000   2.00000 180.00000
Direct discrete cross sections by DWBA                                  
FFFFFTFTFFFFFFFFFFFFFFFFFFFTFTFFFFFFFFFFFFFFFFFFFF
FFFFFFFFTFFFFTTFTTTFTTTFTFFFFFFFFFFFFFFFFFFFTFFFFF
    2   20    1    1
   0.00000   0.00000              1.e-10    1.e-10    1.e-30

 0.00 0 1+   5.00000   0.50000   1.00866 238.05079   0.00000

 5.00 0 1-   0.82664
    1    1    1
    5    0   0.15369
  43.63731   1.26395   0.65668
   0.20132   1.26537   0.70211
   3.75061   1.19205   0.61062
   5.17409   1.19205   0.61062
   5.52000   1.12140   0.59000
  -0.01320   1.12140   0.59000
   0.00000   0.00000   0.00000
   0.00000   0.00000   0.00000
   0.00000   2.00000 180.00000
Direct discrete cross sections by DWBA                                  
FFFFFTFTFFFFFFFFFFFFFFFFFFFTFTFFFFFFFFFFFFFFFFFFFF
FFFFFFFFTFFFFTTFTTTFTTTFTFFFFFFFFFFFFFFFFFFFTFFFFF
    2   20    1    1
   0.00000   0.00000              1.e-10    1.e-10    1.e-30

 0.00 0 1+   5.00000   0.50000   1.00866 238.05079   0.00000

 0.00 0 1+   0.92721
    1    1    1
    0    0   0.20000
  43.63731   1.26395   0.65668
   0.20132   1.26537   0.70211
   3.75061   1.19205   0.61062
   5.17409   1.19205   0.61062
   5.52000   1.12140   0.59000
  -0.01320   1.12140   0.59000
   0.00000   0.00000   0.00000
   0.00000   0.00000   0.00000
   0.00000   2.00000 180.00000
Direct discrete cross sections by DWBA                                  
FFFFFTFTFFFFFFFFFFFFFFFFFFFTFTFFFFFFFFFFFFFFFFFFFF
FFFFFFFFTFFFFTTFTTTFTTTFTFFFFFFFFFFFFFFFFFFFTFFFFF
    2   20    1    1
   0.00000   0.00000              1.e-10    1.e-10    1.e-30

 0.00 0 1+   5.00000   0.50000   1.00866 238.05079   0.00000

 1.00 0 1-   0.93055
    1    1    1
    1    0   0.10000
  43.63731   1.26395   0.65668
   0.20132   1.26537   0.70211
   3.75061   1.19205   0.61062
   5.17409   1.19205   0.61062
   5.52000   1.12140   0.59000
  -0.01320   1.12140   0.59000
   0.00000   0.00000   0.00000
   0.00000   0.00000   0.00000
   0.00000   2.00000 180.00000
Direct discrete cross sections by DWBA                                  
FFFFFTFTFFFFFFFFFFFFFFFFFFFTFTFFFFFFFFFFFFFFFFFFFF
FFFFFFFFTFFFFTTFTTTFTTTFTFFFFFFFFFFFFFFFFFFFTFFFFF
    2   20    1    1
   0.00000   0.00000              1.e-10    1.e-10    1.e-30

 0.00 0 1+   5.00000   0.50000   1.00866 238.05079   0.00000

 2.00 0 1+   0.96613
    1    1    1
    2    0   0.15369
  43.63731   1.26395   0.65668
   0.20132   1.26537   0.70211
   3.75061   1.19205   0.61062
   5.17409   1.19205   0.61062
   5.52000   1.12140   0.59000
  -0.01320   1.12140   0.59000
   0.00000   0.00000   0.00000
   0.00000   0.00000   0.00000
   0.00000   2.00000 180.00000
Direct discrete cross sections by DWBA                                  
FFFFFTFTFFFFFFFFFFFFFFFFFFFTFTFFFFFFFFFFFFFFFFFFFF
FFFFFFFFTFFFFTTFTTTFTTTFTFFFFFFFFFFFFFFFFFFFTFFFFF
    2   20    1    1
   0.00000   0.00000              1.e-10    1.e-10    1.e-30

 0.00 0 1+   5.00000   0.50000   1.00866 238.05079   0.00000

 7.00 0 1-   0.98177
    1    1    1
    7    0   0.15369
  43.63731   1.26395   0.65668
   0.20132   1.26537   0.70211
   3.75061   1.19205   0.61062
   5.17409   1.19205   0.61062
   5.52000   1.12140   0.59000
  -0.01320   1.12140   0.59000
   0.00000   0.00000   0.00000
   0.00000   0.00000   0.00000
   0.00000   2.00000 180.00000
Direct discrete cross sections by DWBA                                  
FFFFFTFTFFFFFFFFFFFFFFFFFFFTFTFFFFFFFFFFFFFFFFFFFF
FFFFFFFFTFFFFTTFTTTFTTTFTFFFFFFFFFFFFFFFFFFFTFFFFF
    2   20    1    1
   0.00000   0.00000              1.e-10    1.e-10    1.e-30

 0.00 0 1+   5.00000   0.50000   1.00866 238.05079   0.00000

 0.00 0 1+   0.99723
    1    1    1
    0    0   0.10000
  43.63731   1.26395   0.65668
   0.20132   1.26537   0.70211
   3.75061   1.19205   0.61062
   5.17409   1.19205   0.61062
   5.52000   1.12140   0.59000
  -0.01320   1.12140   0.59000
   0.00000   0.00000   0.00000
   0.00000   0.00000   0.00000
   0.00000   2.00000 180.00000
Direct discrete cross sections by DWBA                                  
FFFFFTFTFFFFFFFFFFFFFFFFFFFTFTFFFFFFFFFFFFFFFFFFFF
FFFFFFFFTFFFFTTFTTTFTTTFTFFFFFFFFFFFFFFFFFFFTFFFFF
    2   20    1    1
   0.00000   0.00000              1.e-10    1.e-10    1.e-30

 0.00 0 1+   5.00000   0.50000   1.00866 238.05079   0.00000

 3.00 0 1-   1.01279
    1    1    1
    3    0   0.15369
  43.63731   1.26395   0.65668
   0.20132   1.26537   0.70211
   3.75061   1.19205   0.61062
   5.17409   1.19205   0.61062
   5.52000   1.12140   0.59000
  -0.01320   1.12140   0.59000
   0.00000   0.00000   0.00000
   0.00000   0.00000   0.00000
   0.00000   2.00000 180.00000
Direct discrete cross sections by DWBA                                  
FFFFFTFTFFFFFFFFFFFFFFFFFFFTFTFFFFFFFFFFFFFFFFFFFF
FFFFFFFFTFFFFTTFTTTFTTTFTFFFFFFFFFFFFFFFFFFFTFFFFF
    2   20    1    1
   0.00000   0.00000              1.e-10    1.e-10    1.e-30

 0.00 0 1+   5.00000   0.50000   1.00866 238.05079   0.00000

 2.00 0 1+   1.03725
    1    1    1
    2    0   0.15369
  43.63731   1.26395   0.65668
   0.20132   1.26537   0.70211
   3.75061   1.19205   0.61062
   5.17409   1.19205   0.61062
   5.52000   1.12140   0.59000
  -0.01320   1.12140   0.59000
   0.00000   0.00000   0.00000
   0.00000   0.00000   0.00000
   0.00000   2.00000 180.00000
Direct discrete cross sections by DWBA                                  
FFFFFTFTFFFFFFFFFFFFFFFFFFFTFTFFFFFFFFFFFFFFFFFFFF
FFFFFFFFTFFFFTTFTTTFTTTFTFFFFFFFFFFFFFFFFFFFTFFFFF
    2   20    1    1
   0.00000   0.00000              1.e-10    1.e-10    1.e-30

 0.00 0 1+   5.00000   0.50000   1.00866 238.05079   0.00000

 4.00 0 1+   1.05638
    1    1    1
    4    0   0.15369
  43.63731   1.26395   0.65668
   0.20132   1.26537   0.70211
   3.75061   1.19205   0.61062
   5.17409   1.19205   0.61062
   5.52000   1.12140   0.59000
  -0.01320   1.12140   0.59000
   0.00000   0.00000   0.00000
   0.00000   0.00000   0.00000
   0.00000   2.00000 180.00000
Direct discrete cross sections by DWBA                                  
FFFFFTFTFFFFFFFFFFFFFFFFFFFTFTFFFFFFFFFFFFFFFFFFFF
FFFFFFFFTFFFFTTFTTTFTTTFTFFFFFFFFFFFFFFFFFFFTFFFFF
    2   20    1    1
   0.00000   0.00000              1.e-10    1.e-10    1.e-30

 0.00 0 1+   5.00000   0.50000   1.00866 238.05079   0.00000

 2.00 0 1+   1.06849
    1    1    1
    2    0   0.15369
  43.63731   1.26395   0.65668
   0.20132   1.26537   0.70211
   3.75061   1.19205   0.61062
   5.17409   1.19205   0.61062
   5.52000   1.12140   0.59000
  -0.01320   1.12140   0.59000
   0.00000   0.00000   0.00000
   0.00000   0.00000   0.00000
   0.00000   2.00000 180.00000
Direct discrete cross sections by DWBA                                  
FFFFFTFTFFFFFFFFFFFFFFFFFFFTFTFFFFFFFFFFFFFFFFFFFF
FFFFFFFFTFFFFTTFTTTFTTTFTFFFFFFFFFFFFFFFFFFFTFFFFF
    2   20    1    1
   0.00000   0.00000              1.e-10    1.e-10    1.e-30

 0.00 0 1+   5.00000   0.50000   1.00866 238.05079   0.00000

12.00 0 1+   1.07670
    1    1    1
   12    0   0.10000
  43.63731   1.26395   0.65668
   0.20132   1.26537   0.70211
   3.75061   1.19205   0.61062
   5.17409   1.19205   0.61062
   5.52000   1.12140   0.59000
  -0.01320   1.12140   0.59000
   0.00000   0.00000   0.00000
   0.00000   0.00000   0.00000
   0.00000   2.00000 180.00000
Direct discrete cross sections by DWBA                                  
FFFFFTFTFFFFFFFFFFFFFFFFFFFTFTFFFFFFFFFFFFFFFFFFFF
FFFFFFFFTFFFFTTFTTTFTTTFTFFFFFFFFFFFFFFFFFFFTFFFFF
    2   20    1    1
   0.00000   0.00000              1.e-10    1.e-10    1.e-30

 0.00 0 1+   5.00000   0.50000   1.00866 238.05079   0.00000

 4.00 0 1+   1.13075
    1    1    1
    4    0   0.15369
  43.63731   1.26395   0.65668
   0.20132   1.26537   0.70211
   3.75061   1.19205   0.61062
   5.17409   1.19205   0.61062
   5.52000   1.12140   0.59000
  -0.01320   1.12140   0.59000
   0.00000   0.00000   0.00000
   0.00000   0.00000   0.00000
   0.00000   2.00000 180.00000
Direct discrete cross sections by DWBA                                  
FFFFFTFTFFFFFFFFFFFFFFFFFFFTFTFFFFFFFFFFFFFFFFFFFF
FFFFFFFFTFFFFTTFTTTFTTTFTFFFFFFFFFFFFFFFFFFFTFFFFF
    2   20    1    1
   0.00000   0.00000              1.e-10    1.e-10    1.e-30

 0.00 0 1+   5.00000   0.50000   1.00866 238.05079   0.00000

 2.00 0 1+   1.13570
    1    1    1
    2    0   0.15369
  43.63731   1.26395   0.65668
   0.20132   1.26537   0.70211
   3.75061   1.19205   0.61062
   5.17409   1.19205   0.61062
   5.52000   1.12140   0.59000
  -0.01320   1.12140   0.59000
   0.00000   0.00000   0.00000
   0.00000   0.00000   0.00000
   0.00000   2.00000 180.00000
Direct discrete cross sections by DWBA                                  
FFFFFTFTFFFFFFFFFFFFFFFFFFFTFTFFFFFFFFFFFFFFFFFFFF
FFFFFFFFTFFFFTTFTTTFTTTFTFFFFFFFFFFFFFFFFFFFTFFFFF
    2   20    1    1
   0.00000   0.00000              1.e-10    1.e-10    1.e-30

 0.00 0 1+   5.00000   0.50000   1.00866 238.05079   0.00000

 9.00 0 1-   1.15070
    1    1    1
    9    0   0.15369
  43.63731   1.26395   0.65668
   0.20132   1.26537   0.70211
   3.75061   1.19205   0.61062
   5.17409   1.19205   0.61062
   5.52000   1.12140   0.59000
  -0.01320   1.12140   0.59000
   0.00000   0.00000   0.00000
   0.00000   0.00000   0.00000
   0.00000   2.00000 180.00000
Direct discrete cross sections by DWBA                                  
FFFFFTFTFFFFFFFFFFFFFFFFFFFTFTFFFFFFFFFFFFFFFFFFFF
FFFFFFFFTFFFFTTFTTTFTTTFTFFFFFFFFFFFFFFFFFFFTFFFFF
    2   20    1    1
   0.00000   0.00000              1.e-10    1.e-10    1.e-30

 0.00 0 1+   5.00000   0.50000   1.00866 238.05079   0.00000

 4.00 0 1+   1.16300
    1    1    1
    4    0   0.15369
  43.63731   1.26395   0.65668
   0.20132   1.26537   0.70211
   3.75061   1.19205   0.61062
   5.17409   1.19205   0.61062
   5.52000   1.12140   0.59000
  -0.01320   1.12140   0.59000
   0.00000   0.00000   0.00000
   0.00000   0.00000   0.00000
   0.00000   2.00000 180.00000
Direct discrete cross sections by DWBA                                  
FFFFFTFTFFFFFFFFFFFFFFFFFFFTFTFFFFFFFFFFFFFFFFFFFF
FFFFFFFFTFFFFTTFTTTFTTTFTFFFFFFFFFFFFFFFFFFFTFFFFF
    2   20    1    1
   0.00000   0.00000              1.e-10    1.e-10    1.e-30

 0.00 0 1+   5.00000   0.50000   1.00866 238.05079   0.00000

 4.00 0 1+   1.16799
    1    1    1
    4    0   0.15369
  43.63731   1.26395   0.65668
   0.20132   1.26537   0.70211
   3.75061   1.19205   0.61062
   5.17409   1.19205   0.61062
   5.52000   1.12140   0.59000
  -0.01320   1.12140   0.59000
   0.00000   0.00000   0.00000
   0.00000   0.00000   0.00000
   0.00000   2.00000 180.00000
Direct discrete cross sections by DWBA                                  
FFFFFTFTFFFFFFFFFFFFFFFFFFFTFTFFFFFFFFFFFFFFFFFFFF
FFFFFFFFTFFFFTTFTTTFTTTFTFFFFFFFFFFFFFFFFFFFTFFFFF
    2   20    1    1
   0.00000   0.00000              1.e-10    1.e-10    1.e-30

 0.00 0 1+   5.00000   0.50000   1.00866 238.05079   0.00000

 3.00 0 1-   1.18909
    1    1    1
    3    0   0.15369
  43.63731   1.26395   0.65668
   0.20132   1.26537   0.70211
   3.75061   1.19205   0.61062
   5.17409   1.19205   0.61062
   5.52000   1.12140   0.59000
  -0.01320   1.12140   0.59000
   0.00000   0.00000   0.00000
   0.00000   0.00000   0.00000
   0.00000   2.00000 180.00000
Direct discrete cross sections by DWBA                                  
FFFFFTFTFFFFFFFFFFFFFFFFFFFTFTFFFFFFFFFFFFFFFFFFFF
FFFFFFFFTFFFFTTFTTTFTTTFTFFFFFFFFFFFFFFFFFFFTFFFFF
    2   20    1    1
   0.00000   0.00000              1.e-10    1.e-10    1.e-30

 0.00 0 1+   5.00000   0.50000   1.00866 238.05079   0.00000

 2.00 0 1+   1.22378
    1    1    1
    2    0   0.15369
  43.63731   1.26395   0.65668
   0.20132   1.26537   0.70211
   3.75061   1.19205   0.61062
   5.17409   1.19205   0.61062
   5.52000   1.12140   0.59000
  -0.01320   1.12140   0.59000
   0.00000   0.00000   0.00000
   0.00000   0.00000   0.00000
   0.00000   2.00000 180.00000
Direct discrete cross sections by DWBA                                  
FFFFFTFTFFFFFFFFFFFFFFFFFFFTFTFFFFFFFFFFFFFFFFFFFF
FFFFFFFFTFFFFTTFTTTFTTTFTFFFFFFFFFFFFFFFFFFFTFFFFF
    2   20    1    1
   0.00000   0.00000              1.e-10    1.e-10    1.e-30

 0.00 0 1+   5.00000   0.50000   1.00866 238.05079   0.00000

 3.00 0 1-   1.24290
    1    1    1
    3    0   0.15369
  43.63731   1.26395   0.65668
   0.20132   1.26537   0.70211
   3.75061   1.19205   0.61062
   5.17409   1.19205   0.61062
   5.52000   1.12140   0.59000
  -0.01320   1.12140   0.59000
   0.00000   0.00000   0.00000
   0.00000   0.00000   0.00000
   0.00000   2.00000 180.00000
Direct discrete cross sections by DWBA                                  
FFFFFTFTFFFFFFFFFFFFFFFFFFFTFTFFFFFFFFFFFFFFFFFFFF
FFFFFFFFTFFFFTTFTTTFTTTFTFFFFFFFFFFFFFFFFFFFTFFFFF
    2   20    1    1
   0.00000   0.00000              1.e-10    1.e-10    1.e-30

 0.00 0 1+   5.00000   0.50000   1.00866 238.05079   0.00000

 2.00 0 1+   1.26090
    1    1    1
    2    0   0.15369
  43.63731   1.26395   0.65668
   0.20132   1.26537   0.70211
   3.75061   1.19205   0.61062
   5.17409   1.19205   0.61062
   5.52000   1.12140   0.59000
  -0.01320   1.12140   0.59000
   0.00000   0.00000   0.00000
   0.00000   0.00000   0.00000
   0.00000   2.00000 180.00000
Direct discrete cross sections by DWBA                                  
FFFFFTFTFFFFFFFFFFFFFFFFFFFTFTFFFFFFFFFFFFFFFFFFFF
FFFFFFFFTFFFFTTFTTTFTTTFTFFFFFFFFFFFFFFFFFFFTFFFFF
    2   20    1    1
   0.00000   0.00000              1.e-10    1.e-10    1.e-30

 0.00 0 1+   5.00000   0.50000   1.00866 238.05079   0.00000

 6.00 0 1+   1.26920
    1    1    1
    6    0   0.15369
  43.63731   1.26395   0.65668
   0.20132   1.26537   0.70211
   3.75061   1.19205   0.61062
   5.17409   1.19205   0.61062
   5.52000   1.12140   0.59000
  -0.01320   1.12140   0.59000
   0.00000   0.00000   0.00000
   0.00000   0.00000   0.00000
   0.00000   2.00000 180.00000
Direct discrete cross sections by DWBA                                  
FFFFFTFTFFFFFFFFFFFFFFFFFFFTFTFFFFFFFFFFFFFFFFFFFF
FFFFFFFFTFFFFTTFTTTFTTTFTFFFFFFFFFFFFFFFFFFFTFFFFF
    2   20    1    1
   0.00000   0.00000              1.e-10    1.e-10    1.e-30

 0.00 0 1+   5.00000   0.50000   1.00866 238.05079   0.00000

 2.00 0 1+   1.27854
    1    1    1
    2    0   0.15369
  43.63731   1.26395   0.65668
   0.20132   1.26537   0.70211
   3.75061   1.19205   0.61062
   5.17409   1.19205   0.61062
   5.52000   1.12140   0.59000
  -0.01320   1.12140   0.59000
   0.00000   0.00000   0.00000
   0.00000   0.00000   0.00000
   0.00000   2.00000 180.00000
Direct discrete cross sections by DWBA                                  
FFFFFTFTFFFFFFFFFFFFFFFFFFFTFTFFFFFFFFFFFFFFFFFFFF
FFFFFFFFTFFFFTTFTTTFTTTFTFFFFFFFFFFFFFFFFFFFTFFFFF
    2   20    1    1
   0.00000   0.00000              1.e-10    1.e-10    1.e-30

 0.00 0 1+   5.00000   0.50000   1.00866 238.05079   0.00000

 6.00 0 1+   1.31100
    1    1    1
    6    0   0.15369
  43.63731   1.26395   0.65668
   0.20132   1.26537   0.70211
   3.75061   1.19205   0.61062
   5.17409   1.19205   0.61062
   5.52000   1.12140   0.59000
  -0.01320   1.12140   0.59000
   0.00000   0.00000   0.00000
   0.00000   0.00000   0.00000
   0.00000   2.00000 180.00000
fin
