Spherical optical model                                                 
FFFFFFFTFFFFFFFFFFFFFFFFTFFTFFFFFFFFFFFFFFFFFFFFFF
FFFFFFFFTFFFTTTFTTTFTTTFTFFFFFFFFFFFFFFFFFFFTFFFFF
    1   20    1    1
   0.00000   0.00000              1.e-10    1.e-10    1.e-30

 0.00 1 1+  10.00000   0.50000   1.00866  92.90637   0.00000
  47.48737   1.21524   0.66313
   0.67330   1.21524   0.66313
   0.00000   1.27456   0.53441
   6.56311   1.27456   0.53441
   5.76860   1.05000   0.59000
  -0.03887   1.05000   0.59000
   0.00000   0.00000   0.00000
   0.00000   0.00000   0.00000
   0.00000   2.00000 180.00000
fin
